Minimize
    0.2 x11 + 0.2 x21 + 0.2 x31 + 0.12 x12 + 0.12 x12 + 0.12 x12 + 0.24 x13 + 0.24 x23 + 0.24 x33 + 0.12 x14 + 0.12 x24 + 0.12 x34

Subject To
    R1: x11 + x12 + x13 + x14 = 10000
    R2: x21 + x22 + x23 + x24 = 6000
    R3: x31 + x32 + x33 + x34 = 8000
    R4: x11 + x21 + x31 <= 6000
    R5: x12 + x22 + x32 <= 10000
    R6: x13 + x23 + x33 <= 4000
    R7: x14 + x24 + x34 <= 5000
    R8: 0.08 x11 + 0.06 x12 + 0.1 x13 + 0.04 x14 >= 0.6
    R9: 0.1 x11 + 0.05 x12 + 0.12 x13 + 0.08 x14 >= 0.6
    R10: 0.06 x11 + 0.1 x12 + 0.6 x13 + 0.6 x14 >= 0.7
    R11: 0.08 x11 + 0.06 x12 + 0.06 x13 + 0.09 x14 >= 0.4
    R12: 0.08 x11 + 0.06 x12 + 0.06 x13 + 0.09 x14 <= 0.8
    R13: 0.08 x21 + 0.06 x22 + 0.1 x23 + 0.04 x24 >= 0.6
    R14: 0.1 x21 + 0.05 x22 + 0.12 x23 + 0.08 x24 >= 0.6
    R15: 0.06 x21 + 0.1 x22 + 0.6 x23 + 0.6 x24 >= 0.6
    R16: 0.08 x21 + 0.06 x22 + 0.06 x23 + 0.09 x24 >= 0.4
    R17: 0.08 x21 + 0.06 x22 + 0.06 x23 + 0.09 x24 <= 0.6
    R18: 0.08 x31 + 0.06 x32 + 0.1 x33 + 0.04 x34 >= 0.4
    R19: 0.08 x31 + 0.06 x32 + 0.1 x33 + 0.04 x34 <= 0.6
    R20: 0.1 x31 + 0.05 x32 + 0.12 x33 + 0.08 x34 >= 0.6
    R21: 0.06 x31 + 0.1 x32 + 0.6 x33 + 0.6 x34 >= 0.6
    R22: 0.08 x31 + 0.06 x32 + 0.06 x33 + 0.09 x34 >= 0.4
    R23: 0.08 x31 + 0.06 x32 + 0.06 x33 + 0.09 x34 <= 0.6

Bounds
    x11 >= 0
    x12 >= 0
    x13 >= 0
    x14 >= 0
    x21 >= 0
    x22 >= 0
    x23 >= 0
    x24 >= 0
    x31 >= 0
    x32 >= 0
    x33 >= 0
    x34 >= 0

End
